63 50 77 84 37 38 58 48 70 97 11 20 7 96 15 31 98 23 57 14 49 61 73 4 75 60 52 36 12 40 9 32 21 35 68 41 47 16 10 71 55 89 93 13 80 26 86 27 59 17 95 1 8 51 65 2 0 45 19 69 87 39 5 34 3 62 24 91 64 28 33 56 79 30 88 94 92 81 83 85 44 54 53 67 76 78 72 43 22 6 18 25 99 29 42 74 90 46 82 66 

